SCIP Status        : solving was interrupted [time limit reached]
Total Time         :    3600.00
  solving          :    3600.00
  presolving       :       0.26 (included in solving)
  reading          :       0.00
  copying          :       2.26 (53 #copies) (minimal 0.00, maximal 0.18, average 0.04)
Original Problem   :
  Problem name     : bbbenchmark/g05_100.4.cut
  Variables        : 101 (100 binary, 0 integer, 0 implicit integer, 1 continuous)
  Constraints      : 1 initial, 1 maximal
  Objective        : minimize, 1 non-zeros (abs.min = 1, abs.max = 1)
Presolved Problem  :
  Problem name     : t_bbbenchmark/g05_100.4.cut
  Variables        : 1765 (100 binary, 0 integer, 1648 implicit integer, 17 continuous)
  Constraints      : 1697 initial, 11700 maximal
  Objective        : minimize, 1 non-zeros (abs.min = 1, abs.max = 1)
  Nonzeros         : 8443 constraint, 202 clique table
Presolvers         :   ExecTime  SetupTime  Calls  FixedVars   AggrVars   ChgTypes  ChgBounds   AddHoles    DelCons    AddCons   ChgSides   ChgCoefs
  boundshift       :       0.00       0.00      0          0          0          0          0          0          0          0          0          0
  convertinttobin  :       0.00       0.00      0          0          0          0          0          0          0          0          0          0
  domcol           :       0.00       0.00      1          0          0          0          0          0          0          0          0          0
  dualagg          :       0.00       0.00      0          0          0          0          0          0          0          0          0          0
  dualcomp         :       0.00       0.00      1          0          0          0          0          0          0          0          0          0
  dualinfer        :       0.00       0.00      0          0          0          0          0          0          0          0          0          0
  dualsparsify     :       0.00       0.00      1          0          0          0          0          0          0          0          0          0
  gateextraction   :       0.00       0.00      0          0          0          0          0          0          0          0          0          0
  implics          :       0.00       0.00      2          0          0          0          0          0          0          0          0          0
  inttobinary      :       0.00       0.00      0          0          0          0          0          0          0          0          0          0
  qpkktref         :       0.00       0.00      0          0          0          0          0          0          0          0          0          0
  redvub           :       0.00       0.00      0          0          0          0          0          0          0          0          0          0
  sparsify         :       0.00       0.00      1          0          0          0          0          0          0          0          0          0
  stuffing         :       0.00       0.00      0          0          0          0          0          0          0          0          0          0
  trivial          :       0.00       0.00      4          0          0          0          0          0          0          0          0          0
  tworowbnd        :       0.00       0.00      0          0          0          0          0          0          0          0          0          0
  dualfix          :       0.00       0.00      4          0          0          0          0          0          0          0          0          0
  genvbounds       :       0.00       0.00      0          0          0          0          0          0          0          0          0          0
  probing          :       0.13       0.00      1          0          0          0          0          0          0          0          0          0
  pseudoobj        :       0.00       0.00      1          0          0          0          1          0          0          0          0          0
  symmetry         :       0.00       0.00      0          0          0          0          0          0          0          0          0          0
  vbounds          :       0.00       0.00      1          0          0          0          0          0          0          0          0          0
  varbound         :       0.00       0.00      2          0          0          0          0          0          0          0          0          0
  and              :       0.01       0.01      2          0          0          0          0          0          0          0          0          0
  linear           :       0.00       0.00      2          0          0          0          0          0          0          0          0          0
  logicor          :       0.00       0.00      0          0          0          0          0          0          0          0          0          0
  bounddisjunction :       0.00       0.00      0          0          0          0          0          0          0          0          0          0
  nonlinear        :       0.12       0.00      5          0          0          0          1          0          0       1696          0          0
  benders          :       0.00       0.00      0          0          0          0          0          0          0          0          0          0
  components       :       0.00       0.00      1          0          0          0          0          0          0          0          0          0
  root node        :          -          -      -          0          -          -         12          -          -          -          -          -
Constraints        :     Number  MaxNumber  #Separate #Propagate    #EnfoLP    #EnfoRelax  #EnfoPS    #Check   #ResProp    Cutoffs    DomReds       Cuts    Applied      Conss   Children
  benderslp        :          0          0          0          0     126103          0          0      10268          0          0          0          0          0          0          0
  integral         :          0          0          0          0     126103          0          0      10268          0          0        646          0          0        235     251778
  varbound         :         16         16         58     793269          0          0          0        140          0          0      61263          0          0          0          0
  and              :       1648       1648     148072     845900          2          0          0        140     496490          0    2021122       8250       8081          0          0
  linear           :         33+        42         58     845938          2          0          0        138       1066          0     480484          0          0          0          0
  logicor          :          0+      9540          0     137868          0          0          0          0         26        652         46          0          0          0          0
  bounddisjunction :          0+       573          0      55414          0          0          0          0          0         15          1          0          0          0          0
  benders          :          0          0          0          0          2          0          0         26          0          0          0          0          0          0          0
  countsols        :          0          0          0          0          2          0          0         26          0          0          0          0          0          0          0
  components       :          0          0          0          0          0          0          0          0          0          0          0          0          0          0          0
Constraint Timings :  TotalTime  SetupTime   Separate  Propagate     EnfoLP     EnfoPS     EnfoRelax   Check    ResProp    SB-Prop
  benderslp        :       0.15       0.00       0.00       0.00       0.13       0.00       0.00       0.02       0.00       0.00
  integral         :      60.11       0.00       0.00       0.00      60.03       0.00       0.00       0.08       0.00       0.00
  varbound         :       1.01       0.00       0.00       1.01       0.00       0.00       0.00       0.00       0.00       0.00
  and              :     140.12       0.01      97.32      41.91       0.00       0.00       0.00       0.00       0.44       0.44
  linear           :       6.68       0.00       0.03       6.63       0.00       0.00       0.00       0.00       0.00       0.02
  logicor          :      12.49       0.00       0.00      12.48       0.00       0.00       0.00       0.00       0.00       0.01
  bounddisjunction :       0.98       0.00       0.00       0.98       0.00       0.00       0.00       0.00       0.00       0.00
  benders          :       0.00       0.00       0.00       0.00       0.00       0.00       0.00       0.00       0.00       0.00
  countsols        :       0.00       0.00       0.00       0.00       0.00       0.00       0.00       0.00       0.00       0.00
  components       :       0.24       0.00       0.00       0.23       0.00       0.00       0.00       0.00       0.00       0.01
Propagators        : #Propagate   #ResProp    Cutoffs    DomReds
  dualfix          :          4          0          0          0
  genvbounds       :          0          0          0          0
  nlobbt           :          0          0          0          0
  obbt             :          0          0          0          0
  probing          :          0          0          0          0
  pseudoobj        :     547203         57          0       1351
  redcost          :     293223          0          0     175331
  rootredcost      :         18          0          0          0
  symmetry         :          0          0          0          0
  vbounds          :     129410          0          0          0
Propagator Timings :  TotalTime  SetupTime   Presolve  Propagate    ResProp    SB-Prop
  dualfix          :       0.00       0.00       0.00       0.00       0.00       0.00
  genvbounds       :       0.62       0.00       0.00       0.62       0.00       0.00
  nlobbt           :       0.00       0.00       0.00       0.00       0.00       0.00
  obbt             :       0.00       0.00       0.00       0.00       0.00       0.00
  probing          :       0.13       0.00       0.13       0.00       0.00       0.00
  pseudoobj        :       0.99       0.00       0.00       0.98       0.00       0.01
  redcost          :      19.91       0.00       0.00      19.91       0.00       0.00
  rootredcost      :       0.74       0.00       0.00       0.74       0.00       0.00
  symmetry         :       0.42       0.00       0.00       0.41       0.00       0.01
  vbounds          :       0.61       0.00       0.00       0.61       0.00       0.00
Conflict Analysis  :       Time      Calls    Success    DomReds  Conflicts   Literals    Reconvs ReconvLits   Dualrays   Nonzeros   LP Iters   (pool size: [10000,10000])
  propagation      :       0.01        667        531          -        611       66.5          0        0.0          -          -          -
  infeasible LP    :       0.21        134        134          -       3520      140.8          0        0.0        135      153.9          0
  bound exceed. LP :      23.79       6261       5828          -     148248      110.7          0        0.0          0        0.0      62885
  strong branching :       0.00          0          0          -          0        0.0          0        0.0          -          -          0
  pseudo solution  :       0.00          0          0          -          0        0.0          0        0.0          -          -          -
  applied globally :       0.80          -          -          0      35215      116.7          -          -        135          -          -
  applied locally  :          -          -          -          0          0        0.0          -          -          0          -          -
Separators         :   ExecTime  SetupTime      Calls  RootCalls    Cutoffs    DomReds  FoundCuts ViaPoolAdd  DirectAdd    Applied ViaPoolApp  DirectApp      Conss
  cut pool         :       8.81          -      29798         82          -          -      38313    2764885          -          -          -          -          -    (maximal pool size:       5143)
  aggregation      :      11.87       0.00       5597         58          0          0        114       1527          0        324        324          0          0
  > cmir           :          -          -          -          -          -          -          -       1527          0        324        324          0          -
  > flowcover      :          -          -          -          -          -          -          -          0          0          0          0          0          -
  > knapsackcover  :          -          -          -          -          -          -          -          0          0          0          0          0          -
  cgmip            :       0.00       0.00          0          0          0          0          0          0          0          0          0          0          0
  clique           :       0.00       0.00         58         58          0          0          0          0          0          0          0          0          0
  closecuts        :       0.00       0.00          0          0          0          0          0          0          0          0          0          0          0
  convexproj       :       0.00       0.00          0          0          0          0          0          0          0          0          0          0          0
  disjunctive      :       0.00       0.00          0          0          0          0          0          0          0          0          0          0          0
  eccuts           :       0.00       0.00          0          0          0          0          0          0          0          0          0          0          0
  gauge            :       0.00       0.00          0          0          0          0          0          0          0          0          0          0          0
  gomory           :       0.00       0.00          0          0          0          0          0          0          0          0          0          0          0
  > gomorymi       :          -          -          -          -          -          -          -          0          0          0          0          0          -
  > strongcg       :          -          -          -          -          -          -          -          0          0          0          0          0          -
  impliedbounds    :       0.61       0.00       5597         58          0          0          0          0          0          0          0          0          0
  interlattice     :       0.19       0.00         30         30          0          0         30          0         30         30          0         30          0
  interminor       :       0.00       0.00          0          0          0          0          0          0          0          0          0          0          0
  intersub         :       0.00       0.00          0          0          0          0          0          0          0          0          0          0          0
  intobj           :       0.00       0.00          0          0          0          0          0          0          0          0          0          0          0
  mcf              :       0.00       0.00          1          1          0          0          0          0          0          0          0          0          0
  minor            :       0.02       0.00          0          0          0          0          0          0          0          0          0          0          0
  mixing           :       0.02       0.00       5597         58          0          0          0          0          0          0          0          0          0
  oddcycle         :       0.00       0.00          0          0          0          0          0          0          0          0          0          0          0
  rapidlearning    :       0.00       0.00          0          0          0          0          0          0          0          0          0          0          0
  rlt              :       0.00       0.00         10         10          0          0          0          0          0          0          0          0          0
  zerohalf         :      41.80       0.00       4699         20          0          0      38199    2763358          0     214007     214007          0          0
Cutselectors       :   ExecTime  SetupTime      Calls  RootCalls   Selected     Forced   Filtered  RootSelec   RootForc   RootFilt 
  hybrid           :       3.27       0.00      21014         56     222442          0    2550723        224          0          2
Pricers            :   ExecTime  SetupTime      Calls       Vars
  problem variables:       0.00          -          0          0
Branching Rules    :   ExecTime  SetupTime   BranchLP  BranchExt   BranchPS    Cutoffs    DomReds       Cuts      Conss   Children
  allfullstrong    :       0.00       0.00          0          0          0          0          0          0          0          0
  cloud            :       0.00       0.00          0          0          0          0          0          0          0          0
  distribution     :       0.00       0.00          0          0          0          0          0          0          0          0
  fullstrong       :       0.00       0.00          0          0          0          0          0          0          0          0
  inference        :       0.00       0.00          0          0          0          0          0          0          0          0
  leastinf         :       0.00       0.00          0          0          0          0          0          0          0          0
  lookahead        :       0.00       0.00          0          0          0          0          0          0          0          0
  mostinf          :       0.00       0.00          0          0          0          0          0          0          0          0
  multaggr         :       0.00       0.00          0          0          0          0          0          0          0          0
  nodereopt        :       0.00       0.00          0          0          0          0          0          0          0          0
  pscost           :       0.00       0.00          0          0          0          0          0          0          0          0
  random           :       0.00       0.00          0          0          0          0          0          0          0          0
  relpscost        :      59.62       0.00     126101          0          0          0        646          0        240     251778
  vanillafullstrong:       0.00       0.00          0          0          0          0          0          0          0          0
Primal Heuristics  :   ExecTime  SetupTime      Calls      Found       Best
  LP solutions     :       0.00          -          -          2          2
  relax solutions  :       0.00          -          -          0          0
  pseudo solutions :       0.00          -          -          0          0
  strong branching :       0.03          -          -          0          0
  actconsdiving    :       0.00       0.00          0          0          0
  adaptivediving   :       3.76       0.00         32          0          0
  alns             :       2.37       0.00         17          1          1
  bound            :       0.00       0.00          0          0          0
  clique           :       0.01       0.00          1          0          0
  coefdiving       :       0.00       0.00          0          0          0
  completesol      :       0.00       0.00          0          0          0
  conflictdiving   :     146.38       0.00       1206          4          4
  crossover        :       2.84       0.00         10          2          2
  dins             :       0.00       0.00          0          0          0
  distributiondivin:      80.72       0.00        362          0          0
  dps              :       0.00       0.00          0          0          0
  dualval          :       0.00       0.00          0          0          0
  farkasdiving     :       0.01       0.00          0          0          0
  feaspump         :       0.16       0.00          1          1          1
  fixandinfer      :       0.00       0.00          0          0          0
  fracdiving       :      54.71       0.00        498          0          0
  gins             :       0.25       0.00          0          0          0
  guideddiving     :      59.90       0.00        471          2          2
  indicator        :       0.16       0.00          0          0          0
  indicatordiving  :       0.00       0.00          0          0          0
  intdiving        :       0.00       0.00          0          0          0
  intshifting      :       0.65       0.00         94          0          0
  linesearchdiving :      54.74       0.00        471          1          1
  localbranching   :       0.00       0.00          0          0          0
  locks            :       0.00       0.00          1          0          0
  lpface           :       0.17       0.00          0          0          0
  mpec             :     328.98       0.00         11          4          4
  multistart       :       0.00       0.00          0          0          0
  mutation         :       0.00       0.00          0          0          0
  nlpdiving        :      40.59       0.00          2          0          0
  objpscostdiving  :      31.53       0.00         50          3          0
  octane           :       0.00       0.00          0          0          0
  ofins            :       0.12       0.00          0          0          0
  oneopt           :       0.16       0.00         21          0          0
  padm             :       0.00       0.00          0          0          0
  proximity        :       0.00       0.00          0          0          0
  pscostdiving     :      56.60       0.00        417          1          1
  randrounding     :       0.76       0.00      10238          0          0
  rens             :       0.00       0.00          0          0          0
  reoptsols        :       0.00       0.00          0          0          0
  repair           :       0.00       0.00          0          0          0
  rins             :       5.22       0.00         25          0          0
  rootsoldiving    :      31.57       0.00         38          0          0
  rounding         :       1.92       0.00       5297          0          0
  shiftandpropagate:       0.00       0.00          0          0          0
  shifting         :      32.71       0.00       7079          1          1
  simplerounding   :       0.15       0.00          0          0          0
  subnlp           :     219.51       0.00          0          0          0
  trivial          :       0.00       0.00          2          2          2
  trivialnegation  :       0.00       0.00          0          0          0
  trustregion      :       0.00       0.00          0          0          0
  trysol           :       0.18       0.00          0          0          0
  twoopt           :       0.00       0.00          0          0          0
  undercover       :       1.13       0.00          1          1          1
  vbounds          :       0.00       0.00          0          0          0
  veclendiving     :      55.39       0.00        452          0          0
  zeroobj          :       0.00       0.00          0          0          0
  zirounding       :       0.45       0.00       1000          0          0
  other solutions  :          -          -          -          0          -
Diving (single)    :      Calls      Nodes   LP Iters Backtracks  Conflicts   MinDepth   MaxDepth   AvgDepth  RoundSols  NLeafSols  MinSolDpt  MaxSolDpt  AvgSolDpt
  actconsdiving    :          0          -          -          -          -          -          -          -          -          -          -          -          -
  coefdiving       :          0          -          -          -          -          -          -          -          -          -          -          -          -
  conflictdiving   :       1206      58920    1488564       1088      64266         56         87       71.4          0          4         65         73       69.0
  distributiondivin:        362      14236     570725        406       7053         53         76       60.5          0          -          -          -          -
  farkasdiving     :          0          -          -          -          -          -          -          -          -          -          -          -          -
  fracdiving       :        498      44592     522894        186       3256         56        354      112.0          0          -          -          -          -
  guideddiving     :        471      41353     570145        187       9601         59        235      110.3          0          2         80        137      108.5
  indicatordiving  :          0          -          -          -          -          -          -          -          -          -          -          -          -
  linesearchdiving :        471      21309     567055        353      25356         52         92       67.0          0          1         79         79       79.0
  pscostdiving     :        417      18044     580898        429      10777         52         79       65.0          0          1         78         78       78.0
  veclendiving     :        452      19728     567097        413      29517         54         91       65.2          0          -          -          -          -
Diving (adaptive)  :      Calls      Nodes   LP Iters Backtracks  Conflicts   MinDepth   MaxDepth   AvgDepth  RoundSols  NLeafSols  MinSolDpt  MaxSolDpt  AvgSolDpt
  actconsdiving    :          4        156       4736          4        115         56         61       58.8          0          -          -          -          -
  coefdiving       :         10        367      11181          7        559         55         72       62.7          0          -          -          -          -
  conflictdiving   :          0          -          -          -          -          -          -          -          -          -          -          -          -
  distributiondivin:          0          -          -          -          -          -          -          -          -          -          -          -          -
  farkasdiving     :          0          -          -          -          -          -          -          -          -          -          -          -          -
  fracdiving       :          1        107       1182          0          0        129        129      129.0          0          -          -          -          -
  guideddiving     :          3        198       2219          2         50         86        105       97.7          0          -          -          -          -
  indicatordiving  :          0          -          -          -          -          -          -          -          -          -          -          -          -
  linesearchdiving :          7        320       8540          5        418         59         79       69.9          0          -          -          -          -
  pscostdiving     :          2        104       3141          2         53         69         71       70.0          0          -          -          -          -
  veclendiving     :          5        216       4619          1        205         54         78       66.8          0          -          -          -          -
Neighborhoods      :      Calls  SetupTime  SolveTime SolveNodes       Sols       Best       Exp3  EpsGreedy        UCB TgtFixRate  Opt  Inf Node Stal  Sol  Usr Othr Actv
  rens             :          3       0.40       0.15         29          0          0    0.00000   -1.00000    0.51231      0.437    0    3    0    0    0    0    0    1
  rins             :          2       0.05       0.10         61          0          0    0.00000   -1.00000    0.44600      0.850    0    1    0    1    0    0    0    1
  mutation         :          2       0.05       0.07         58          0          0    0.00000   -1.00000    0.46875      0.850    0    1    0    1    0    0    0    1
  localbranching   :          2       0.09       0.04         60          0          0    0.00000   -1.00000    0.47259      0.850    0    1    0    1    0    0    0    1
  crossover        :          2       0.29       0.09         93          0          0    0.00000   -1.00000    0.46159      0.850    0    1    0    1    0    0    0    1
  proximity        :          2       0.19       0.11         68          0          0    0.00000   -1.00000    0.47145      0.850    0    1    0    1    0    0    0    1
  zeroobjective    :          2       0.07       0.29        631          1          1    0.00000   -1.00000    0.49839      0.850    1    0    0    1    0    0    0    1
  dins             :          2       0.16       0.06         64          0          0    0.00000   -1.00000    0.47138      0.850    0    1    0    1    0    0    0    1
  trustregion      :          0       0.00       0.00          0          0          0    0.00000   -1.00000    1.00000      0.900    0    0    0    0    0    0    0    0
Expressions        :   #IntEval  IntEvalTi   #RevProp  RevPropTi    DomReds    Cutoffs  #Estimate  EstimTime  Branching  #Simplify SimplifyTi Simplified
  pow              :          0       0.00          0       0.00          0          0          0       0.00          0          0       0.00          0
  prod             :       9900       0.01          0       0.00          0          0          0       0.00          0       6598       0.02          0
  sum              :          8       0.00          2       0.00          0          0          0       0.00          0          3       0.00          2
  var              :       6104       0.00          0       0.00          0          0          0       0.00          0      15163       0.05          0
  varidx           :          0       0.00          0       0.00          0          0          0       0.00          0          0       0.00          0
LP                 :       Time      Calls Iterations  Iter/call   Iter/sec  Time-0-It Calls-0-It    ItLimit
  primal LP        :      88.55      13973          0       0.00       0.00      88.46      13973
  dual LP          :    1763.19     236470   11055202      51.07    6270.00       9.01      19996
  lex dual LP      :       0.00          0          0       0.00          -
  barrier LP       :       0.00          0          0       0.00          -       0.00          0
  resolve instable :       0.00          0          0       0.00          -
  diving/probing LP:     470.41      18639    5274902     283.00   11213.41
  strong branching :      16.88       1594     171660     107.69   10169.43          -          -        292
    (at root node) :          -         19       3458     182.00          -
  conflict analysis:       9.70       6573      62885       9.57    6482.99
NLP relaxation     :
  solve time       :      40.27 (8 calls)
  convexity        :  nonconvex (49 linear rows, 0 convex ineq., 0 nonconvex ineq., 1648 nonlinear eq. or two-sided ineq.)
NLP Solvers        :  #Problems  ProblemTi    #Solves  SolveTime      #Iter  Time/Iter      #Okay #TimeLimit #IterLimit #LObjLimit #Interrupt  #NumError #EvalError  #OutOfMem #LicenseEr #OtherTerm   #GlobOpt    #LocOpt  #Feasible #LocInfeas #GlobInfea #Unbounded   #Unknown
  ipopt            :         12       8.47         46     372.61       1813       0.21         45          0          1          0          0          0          0          0          0          0          0         32          0         12          0          0          2
B&B Tree           :
  number of runs   :          1
  nodes            :     195255 (125889 internal, 69366 leaves)
  feasible leaves  :          2
  infeas. leaves   :         61
  objective leaves :      69302
  nodes (total)    :     195255 (125889 internal, 69366 leaves)
  nodes left       :      56010
  max depth        :         73
  max depth (total):         73
  backtracks       :      38263 (19.6%)
  early backtracks :          0 (0.0%)
  nodes exc. ref.  :          0 (0.0%)
  delayed cutoffs  :          1
  repropagations   :        486 (338 domain reductions, 0 cutoffs)
  avg switch length:       5.66
  switching time   :     137.63
Estim. Tree Size   :     391538
Estimation Tree    : 251779 nodes (195769 visited, 125889 internal, 69880 leaves, 56010 open), weight: 0.0000 completed 0.1029
Estimations        :      estim      value      trend resolution     smooth
  wbe              : 2445928785129502          -          -          -          -
  tree-profile     :         -1          -          -          -          -
  gap              :    6346769    0.67563    0.00001        128    6316329
  tree-weight      :     391538    0.00000    0.00000        128     390776
  leaf-frequency   :    1275610    0.35695    0.00003        128    1308791
  ssg              :    7038453    0.83757   -0.00003        128    6897646
  open-nodes       :     391538 56010.00000   29.36507        128     390776
Root Node          :
  First LP value   : -1.00000000000000e+00
  First LP Iters   :       1623 (18033.33 Iter/sec)
  First LP Time    :       0.09
  Final Dual Bound : -9.54545454545455e-01
  Final Root Iters :       2645
  Root LP Estimate : -3.44713141737654e-01
Solution           :
  Solutions found  :         25 (22 improvements)
  First Solution   : +1.00000000000000e+05   (in run 1, after 0 nodes, 0.04 seconds, depth 0, found by <trivial>)
  Gap First Sol.   :   infinite
  Gap Last Sol.    :      57.47 %
  Primal Bound     : -5.66464646464644e-01   (in run 1, after 15817 nodes, 590.82 seconds, depth 56, found by <crossover>)
  Dual Bound       : -8.38419596539108e-01
  Gap              :      48.01 %
Integrals          :      Total       Avg%
  primal-dual      :  125137.92      34.76
  primal-ref       :          -          - (not evaluated)
  dual-ref         :          -          - (not evaluated)
